Optimal - objective value 612.00000000
      0 C           612.000000000001                       0
      1 x_0_0       205.000000000007                       0
      2 x_0_1       286.000000000007                       0
      3 x_0_2       361.000000000007                       0
      4 x_0_3       427.000000000001                       0
      5 x_0_4       505.000000000001                       0
      6 x_0_5       507.000000000001                       0
      7 x_0_6       568.000000000001                       0
      9 x_1_1                    51                       1
     10 x_1_2                   133                       0
     11 x_1_3                   153                       0
     12 x_1_4                   183                       0
     13 x_1_5                   265                       0
     14 x_1_6       435.000000000008                       0
     15 x_2_0                   114                       0
     16 x_2_1                   153                       0
     17 x_2_2                   161                       0
     18 x_2_3                   196                       0
     19 x_2_4       310.000000000007                       0
     20 x_2_5       387.000000000007                       0
     21 x_2_6       480.000000000007                       0
     23 x_3_1                    13                       0
     24 x_3_2       51.0000000000071                       0
     25 x_3_3       69.0000000000071                       0
     26 x_3_4                   133                       0
     27 x_3_5                   253                       0
     28 x_3_6                   287                       0
     29 x_4_0       131.000000000007                       0
     30 x_4_1       205.000000000007                       0
     31 x_4_2                   257                       0
     32 x_4_3                   352                       0
     33 x_4_4                   427                       0
     34 x_4_5       507.000000000001                       0
     35 x_4_6       582.000000000001                       0
     36 x_5_0       24.0000000000072                       0
     37 x_5_1                   141                       0
     38 x_5_2                   183                       0
     39 x_5_3                   278                       0
     40 x_5_4       387.000000000007                       0
     41 x_5_5       489.000000000007                       0
     42 x_5_6       503.000000000007                       0
     43 x_6_0       60.0000000000071                       0
     44 x_6_1       69.0000000000071                       0
     45 x_6_2                   196                       0
     46 x_6_3       361.000000000007                       0
     47 x_6_4       423.000000000007                       0
     48 x_6_5       435.000000000007                       0
     49 x_6_6       480.000000000008                       0
     50 y_0_1_0                   1                       0
     51 y_0_1_1                   1                       0
     52 y_0_1_2                   1                       0
     53 y_0_1_3                   1                       0
     54 y_0_1_4                   1                       0
     55 y_0_1_5                   1                       0
     56 y_0_1_6                   1                       0
     58 y_0_2_1                   1                       0
     59 y_0_2_2                   1                       0
     61 y_0_2_4                   1                       0
     62 y_0_2_5                   1                       0
     63 y_0_2_6                   1                       0
     64 y_0_3_0                   1                       0
     65 y_0_3_1                   1                       0
     66 y_0_3_2                   1                       0
     67 y_0_3_3                   1                       0
     68 y_0_3_4                   1                       0
     69 y_0_3_5                   1                       0
     70 y_0_3_6                   1                       0
     71 y_0_4_0                   1                       0
     72 y_0_4_1                   1                       0
     75 y_0_4_4                   1                       0
     77 y_0_4_6                   1                    2457
     79 y_0_5_1                   1                       0
     81 y_0_5_3                   1                       0
     82 y_0_5_4                   1                       0
     83 y_0_5_5                   1                       0
     84 y_0_5_6                   1                       0
     85 y_0_6_0                   1                       0
     86 y_0_6_1                   1                       0
     88 y_0_6_3                   1                       0
     89 y_0_6_4                   1                       0
     90 y_0_6_5                   1                       0
     91 y_0_6_6                   1                       0
     93 y_1_2_1                   1                       0
     96 y_1_2_4                   1                       0
    100 y_1_3_1                   1                       0
    101 y_1_3_2                   1                       0
    103 y_1_3_4                   1                       0
    107 y_1_4_1                   1                       0
    110 y_1_4_4                   1                       0
    114 y_1_5_1                   1                       0
    117 y_1_5_4                   1                       0
    123 y_1_6_3                   1                       0
    124 y_1_6_4                   1                       0
    127 y_2_3_0                   1                       0
    128 y_2_3_1                   1                       0
    129 y_2_3_2                   1                       0
    130 y_2_3_3                   1                       0
    131 y_2_3_4                   1                       0
    132 y_2_3_5                   1                       0
    133 y_2_3_6                   1                    2457
    134 y_2_4_0                   1                       0
    142 y_2_5_1                   1                       0
    144 y_2_5_3                   1                       0
    145 y_2_5_4                   1                       0
    148 y_2_6_0                   1                       0
    151 y_2_6_3                   1                       0
    165 y_3_5_3                   1                       0
    172 y_3_6_3                   1                       0
    177 y_4_5_1                   1                       0
    179 y_4_5_3                   1                       0
    180 y_4_5_4                   1                       0
    181 y_4_5_5                   1                       0
    182 y_4_5_6                   1                    2457
    183 y_4_6_0                   1                       0
    185 y_4_6_2                   1                       0
    186 y_4_6_3                   1                       0
    188 y_4_6_5                   1                       0
    189 y_4_6_6                   1                       0
    190 y_5_6_0                   1                       0
    192 y_5_6_2                   1                       0
    193 y_5_6_3                   1                       0
    195 y_5_6_5                   1                       0
    196 y_5_6_6                   1                    2457
